JulietBench/Juliet_Based_Patch_Bench/qemu/CWE-369-Divide-By-Zero/CVE_2014_0142_9302e863aa8baa5d932fc078967050c055fa1a7f/Resultparallels_open_Snippet_patch1NEQ.smt2
; benchmark generated from python API
(set-info :status unknown)
(declare-fun R () (_ BitVec 32))
(declare-fun rdi () (_ BitVec 64))
(assert
 (let (($x43 (= (_ bv4294967274 32) R)))
 (let ((?x6 ((_ extract 31 0) rdi)))
 (let (($x7 (= (_ bv0 32) ?x6)))
 (let (($x44 (and $x7 $x43)))
 (let ((?x65 ((_ extract 22 0) rdi)))
 (let ((?x69 (concat ?x65 (_ bv0 9))))
 (let ((?x70 (bvadd ?x6 ?x69)))
 (let (($x35 (= R ?x70)))
 (let (($x60 (and (distinct (_ bv0 32) ?x6) true)))
 (let (($x74 (bvule ?x6 (_ bv4186127 32))))
 (let (($x39 (and $x74 $x60 $x35)))
 (let (($x53 (= (_ bv4294967269 32) R)))
 (let (($x174 (bvugt ?x6 (_ bv4186127 32))))
 (let (($x38 (and $x174 $x60 $x53)))
 (let (($x30 (or $x38 $x39 $x44)))
 (let (($x34 (not $x30)))
 (let (($x11 (bvsge (_ bv4186127 32) ?x6)))
 (let (($x36 (and $x11 $x35)))
 (let (($x41 (bvslt (_ bv4186127 32) ?x6)))
 (let (($x47 (and $x41 $x53)))
 (let (($x48 (or $x47 $x36)))
 (let (($x33 (not $x48)))
 (let (($x37 (and $x33 $x34)))
 (let (($x42 (and $x48 $x30)))
 (let (($x40 (or $x42 $x37)))
 (not $x40)))))))))))))))))))))))))))
(check-sat)
